DATASET = "thpack3";
INSTANCE = "072";

WIDTH = 233;
HEIGHT = 220;
LENGTH = 587;

NO_OF_SHAPES = 8;
size = [|
  96,95,68 |
  69,61,35 |
  107,70,55 |
  92,85,34 |
  96,60,31 |
  66,38,38 |
  63,57,36 |
  51,31,31 |
|];

verticality = [|
  1,1,1 |
  1,1,1 |
  1,1,1 |
  0,0,1 |
  0,1,1 |
  1,1,1 |
  1,1,1 |
  1,1,1 |
|];

box_count = [
  13,
  15,
  15,
  15,
  23,
  15,
  23,
  19,
];
